10
40
1441
1416
1413
1256
1138
1039
415
364
102
64
1	860
2	632
90	905
54	407
231	855
205	732
265	895
55	162
268	693
261	635
329	770
430	914
826	584
102	67
918	518
762	362
558	225
753	246
784	150
974	23
15	325
117	963
39	298
169	947
163	712
202	644
452	962
136	245
309	540
398	579
582	561
533	510
671	530
705	474
756	491
890	400
618	196
951	257
815	76
917	52
